c t pmc
c file mc2022_track3_007.cnf
p cnf 90 634
c p show 1 2 3 4 5 7 8 9 10 12 13 14 15 16 17 18 19 20 21 22 23 24 25 28 30 31 32 33 34 35 36 38 40 42 43 44 45 46 48 49 50 51 52 53 54 55 56 58 59 60 61 63 65 66 68 69 72 73 74 75 78 79 80 81 82 84 85 86 87 88 90 0
-1 0
-46 0
3 0
-48 0
-27 0
72 0
1 46 44 89 0
-1 46 -44 89 0
1 -46 44 -89 0
-1 -46 -44 -89 0
1 46 8 53 0
-1 46 -8 53 0
1 -46 8 -53 0
-1 -46 -8 -53 0
1 46 19 64 0
-1 46 -19 64 0
1 -46 19 -64 0
-1 -46 -19 -64 0
1 46 40 85 0
-1 46 -40 85 0
1 -46 40 -85 0
-1 -46 -40 -85 0
1 46 2 47 0
-1 46 -2 47 0
1 -46 2 -47 0
-1 -46 -2 -47 0
1 46 27 72 0
-1 46 -27 72 0
1 -46 27 -72 0
-1 -46 -27 -72 0
1 46 3 48 0
-1 46 -3 48 0
1 -46 3 -48 0
-1 -46 -3 -48 0
2 47 25 70 0
-2 47 -25 70 0
2 -47 25 -70 0
-2 -47 -25 -70 0
2 47 5 50 0
-2 47 -5 50 0
2 -47 5 -50 0
-2 -47 -5 -50 0
2 47 28 73 0
-2 47 -28 73 0
2 -47 28 -73 0
-2 -47 -28 -73 0
2 47 15 60 0
-2 47 -15 60 0
2 -47 15 -60 0
-2 -47 -15 -60 0
2 47 30 75 0
-2 47 -30 75 0
2 -47 30 -75 0
-2 -47 -30 -75 0
2 47 35 80 0
-2 47 -35 80 0
2 -47 35 -80 0
-2 -47 -35 -80 0
3 48 4 49 0
-3 48 -4 49 0
3 -48 4 -49 0
-3 -48 -4 -49 0
3 48 27 72 0
-3 48 -27 72 0
3 -48 27 -72 0
-3 -48 -27 -72 0
3 48 36 81 0
-3 48 -36 81 0
3 -48 36 -81 0
-3 -48 -36 -81 0
3 48 14 59 0
-3 48 -14 59 0
3 -48 14 -59 0
-3 -48 -14 -59 0
3 48 34 79 0
-3 48 -34 79 0
3 -48 34 -79 0
-3 -48 -34 -79 0
3 48 16 61 0
-3 48 -16 61 0
3 -48 16 -61 0
-3 -48 -16 -61 0
4 49 9 54 0
-4 49 -9 54 0
4 -49 9 -54 0
-4 -49 -9 -54 0
4 49 6 51 0
-4 49 -6 51 0
4 -49 6 -51 0
-4 -49 -6 -51 0
4 49 30 75 0
-4 49 -30 75 0
4 -49 30 -75 0
-4 -49 -30 -75 0
4 49 26 71 0
-4 49 -26 71 0
4 -49 26 -71 0
-4 -49 -26 -71 0
4 49 18 63 0
-4 49 -18 63 0
4 -49 18 -63 0
-4 -49 -18 -63 0
4 49 26 71 0
-4 49 -26 71 0
4 -49 26 -71 0
-4 -49 -26 -71 0
5 50 31 76 0
-5 50 -31 76 0
5 -50 31 -76 0
-5 -50 -31 -76 0
5 50 45 90 0
-5 50 -45 90 0
5 -50 45 -90 0
-5 -50 -45 -90 0
5 50 33 78 0
-5 50 -33 78 0
5 -50 33 -78 0
-5 -50 -33 -78 0
5 50 18 63 0
-5 50 -18 63 0
5 -50 18 -63 0
-5 -50 -18 -63 0
5 50 24 69 0
-5 50 -24 69 0
5 -50 24 -69 0
-5 -50 -24 -69 0
5 50 39 84 0
-5 50 -39 84 0
5 -50 39 -84 0
-5 -50 -39 -84 0
6 51 32 77 0
-6 51 -32 77 0
6 -51 32 -77 0
-6 -51 -32 -77 0
6 51 21 66 0
-6 51 -21 66 0
6 -51 21 -66 0
-6 -51 -21 -66 0
6 51 23 68 0
-6 51 -23 68 0
6 -51 23 -68 0
-6 -51 -23 -68 0
6 51 22 67 0
-6 51 -22 67 0
6 -51 22 -67 0
-6 -51 -22 -67 0
6 51 45 90 0
-6 51 -45 90 0
6 -51 45 -90 0
-6 -51 -45 -90 0
6 51 17 62 0
-6 51 -17 62 0
6 -51 17 -62 0
-6 -51 -17 -62 0
7 52 10 55 0
-7 52 -10 55 0
7 -52 10 -55 0
-7 -52 -10 -55 0
7 52 34 79 0
-7 52 -34 79 0
7 -52 34 -79 0
-7 -52 -34 -79 0
7 52 13 58 0
-7 52 -13 58 0
7 -52 13 -58 0
-7 -52 -13 -58 0
7 52 18 63 0
-7 52 -18 63 0
7 -52 18 -63 0
-7 -52 -18 -63 0
7 52 8 53 0
-7 52 -8 53 0
7 -52 8 -53 0
-7 -52 -8 -53 0
7 52 43 88 0
-7 52 -43 88 0
7 -52 43 -88 0
-7 -52 -43 -88 0
7 52 16 61 0
-7 52 -16 61 0
7 -52 16 -61 0
-7 -52 -16 -61 0
8 53 16 61 0
-8 53 -16 61 0
8 -53 16 -61 0
-8 -53 -16 -61 0
8 53 15 60 0
-8 53 -15 60 0
8 -53 15 -60 0
-8 -53 -15 -60 0
8 53 33 78 0
-8 53 -33 78 0
8 -53 33 -78 0
-8 -53 -33 -78 0
8 53 14 59 0
-8 53 -14 59 0
8 -53 14 -59 0
-8 -53 -14 -59 0
8 53 22 67 0
-8 53 -22 67 0
8 -53 22 -67 0
-8 -53 -22 -67 0
9 54 10 55 0
-9 54 -10 55 0
9 -54 10 -55 0
-9 -54 -10 -55 0
9 54 34 79 0
-9 54 -34 79 0
9 -54 34 -79 0
-9 -54 -34 -79 0
9 54 11 56 0
-9 54 -11 56 0
9 -54 11 -56 0
-9 -54 -11 -56 0
9 54 38 83 0
-9 54 -38 83 0
9 -54 38 -83 0
-9 -54 -38 -83 0
9 54 35 80 0
-9 54 -35 80 0
9 -54 35 -80 0
-9 -54 -35 -80 0
9 54 35 80 0
-9 54 -35 80 0
9 -54 35 -80 0
-9 -54 -35 -80 0
10 55 24 69 0
-10 55 -24 69 0
10 -55 24 -69 0
-10 -55 -24 -69 0
10 55 11 56 0
-10 55 -11 56 0
10 -55 11 -56 0
-10 -55 -11 -56 0
10 55 20 65 0
-10 55 -20 65 0
10 -55 20 -65 0
-10 -55 -20 -65 0
10 55 31 76 0
-10 55 -31 76 0
10 -55 31 -76 0
-10 -55 -31 -76 0
10 55 41 86 0
-10 55 -41 86 0
10 -55 41 -86 0
-10 -55 -41 -86 0
11 56 16 61 0
-11 56 -16 61 0
11 -56 16 -61 0
-11 -56 -16 -61 0
11 56 36 81 0
-11 56 -36 81 0
11 -56 36 -81 0
-11 -56 -36 -81 0
11 56 22 67 0
-11 56 -22 67 0
11 -56 22 -67 0
-11 -56 -22 -67 0
11 56 14 59 0
-11 56 -14 59 0
11 -56 14 -59 0
-11 -56 -14 -59 0
11 56 17 62 0
-11 56 -17 62 0
11 -56 17 -62 0
-11 -56 -17 -62 0
12 57 32 77 0
-12 57 -32 77 0
12 -57 32 -77 0
-12 -57 -32 -77 0
12 57 40 85 0
-12 57 -40 85 0
12 -57 40 -85 0
-12 -57 -40 -85 0
12 57 29 74 0
-12 57 -29 74 0
12 -57 29 -74 0
-12 -57 -29 -74 0
12 57 44 89 0
-12 57 -44 89 0
12 -57 44 -89 0
-12 -57 -44 -89 0
12 57 39 84 0
-12 57 -39 84 0
12 -57 39 -84 0
-12 -57 -39 -84 0
12 57 18 63 0
-12 57 -18 63 0
12 -57 18 -63 0
-12 -57 -18 -63 0
12 57 26 71 0
-12 57 -26 71 0
12 -57 26 -71 0
-12 -57 -26 -71 0
13 58 33 78 0
-13 58 -33 78 0
13 -58 33 -78 0
-13 -58 -33 -78 0
13 58 43 88 0
-13 58 -43 88 0
13 -58 43 -88 0
-13 -58 -43 -88 0
13 58 24 69 0
-13 58 -24 69 0
13 -58 24 -69 0
-13 -58 -24 -69 0
13 58 40 85 0
-13 58 -40 85 0
13 -58 40 -85 0
-13 -58 -40 -85 0
13 58 32 77 0
-13 58 -32 77 0
13 -58 32 -77 0
-13 -58 -32 -77 0
13 58 44 89 0
-13 58 -44 89 0
13 -58 44 -89 0
-13 -58 -44 -89 0
14 59 23 68 0
-14 59 -23 68 0
14 -59 23 -68 0
-14 -59 -23 -68 0
14 59 25 70 0
-14 59 -25 70 0
14 -59 25 -70 0
-14 -59 -25 -70 0
14 59 33 78 0
-14 59 -33 78 0
14 -59 33 -78 0
-14 -59 -33 -78 0
14 59 39 84 0
-14 59 -39 84 0
14 -59 39 -84 0
-14 -59 -39 -84 0
15 60 17 62 0
-15 60 -17 62 0
15 -60 17 -62 0
-15 -60 -17 -62 0
15 60 23 68 0
-15 60 -23 68 0
15 -60 23 -68 0
-15 -60 -23 -68 0
15 60 40 85 0
-15 60 -40 85 0
15 -60 40 -85 0
-15 -60 -40 -85 0
15 60 39 84 0
-15 60 -39 84 0
15 -60 39 -84 0
-15 -60 -39 -84 0
15 60 39 84 0
-15 60 -39 84 0
15 -60 39 -84 0
-15 -60 -39 -84 0
16 61 22 67 0
-16 61 -22 67 0
16 -61 22 -67 0
-16 -61 -22 -67 0
16 61 39 84 0
-16 61 -39 84 0
16 -61 39 -84 0
-16 -61 -39 -84 0
16 61 22 67 0
-16 61 -22 67 0
16 -61 22 -67 0
-16 -61 -22 -67 0
17 62 37 82 0
-17 62 -37 82 0
17 -62 37 -82 0
-17 -62 -37 -82 0
17 62 38 83 0
-17 62 -38 83 0
17 -62 38 -83 0
-17 -62 -38 -83 0
17 62 28 73 0
-17 62 -28 73 0
17 -62 28 -73 0
-17 -62 -28 -73 0
17 62 41 86 0
-17 62 -41 86 0
17 -62 41 -86 0
-17 -62 -41 -86 0
18 63 29 74 0
-18 63 -29 74 0
18 -63 29 -74 0
-18 -63 -29 -74 0
18 63 28 73 0
-18 63 -28 73 0
18 -63 28 -73 0
-18 -63 -28 -73 0
18 63 33 78 0
-18 63 -33 78 0
18 -63 33 -78 0
-18 -63 -33 -78 0
19 64 33 78 0
-19 64 -33 78 0
19 -64 33 -78 0
-19 -64 -33 -78 0
19 64 20 65 0
-19 64 -20 65 0
19 -64 20 -65 0
-19 -64 -20 -65 0
19 64 29 74 0
-19 64 -29 74 0
19 -64 29 -74 0
-19 -64 -29 -74 0
19 64 28 73 0
-19 64 -28 73 0
19 -64 28 -73 0
-19 -64 -28 -73 0
19 64 28 73 0
-19 64 -28 73 0
19 -64 28 -73 0
-19 -64 -28 -73 0
19 64 21 66 0
-19 64 -21 66 0
19 -64 21 -66 0
-19 -64 -21 -66 0
20 65 32 77 0
-20 65 -32 77 0
20 -65 32 -77 0
-20 -65 -32 -77 0
20 65 30 75 0
-20 65 -30 75 0
20 -65 30 -75 0
-20 -65 -30 -75 0
20 65 34 79 0
-20 65 -34 79 0
20 -65 34 -79 0
-20 -65 -34 -79 0
20 65 37 82 0
-20 65 -37 82 0
20 -65 37 -82 0
-20 -65 -37 -82 0
21 66 27 72 0
-21 66 -27 72 0
21 -66 27 -72 0
-21 -66 -27 -72 0
21 66 41 86 0
-21 66 -41 86 0
21 -66 41 -86 0
-21 -66 -41 -86 0
21 66 35 80 0
-21 66 -35 80 0
21 -66 35 -80 0
-21 -66 -35 -80 0
21 66 25 70 0
-21 66 -25 70 0
21 -66 25 -70 0
-21 -66 -25 -70 0
21 66 30 75 0
-21 66 -30 75 0
21 -66 30 -75 0
-21 -66 -30 -75 0
22 67 37 82 0
-22 67 -37 82 0
22 -67 37 -82 0
-22 -67 -37 -82 0
22 67 43 88 0
-22 67 -43 88 0
22 -67 43 -88 0
-22 -67 -43 -88 0
23 68 37 82 0
-23 68 -37 82 0
23 -68 37 -82 0
-23 -68 -37 -82 0
23 68 42 87 0
-23 68 -42 87 0
23 -68 42 -87 0
-23 -68 -42 -87 0
23 68 35 80 0
-23 68 -35 80 0
23 -68 35 -80 0
-23 -68 -35 -80 0
23 68 44 89 0
-23 68 -44 89 0
23 -68 44 -89 0
-23 -68 -44 -89 0
24 69 34 79 0
-24 69 -34 79 0
24 -69 34 -79 0
-24 -69 -34 -79 0
24 69 31 76 0
-24 69 -31 76 0
24 -69 31 -76 0
-24 -69 -31 -76 0
24 69 44 89 0
-24 69 -44 89 0
24 -69 44 -89 0
-24 -69 -44 -89 0
24 69 32 77 0
-24 69 -32 77 0
24 -69 32 -77 0
-24 -69 -32 -77 0
25 70 38 83 0
-25 70 -38 83 0
25 -70 38 -83 0
-25 -70 -38 -83 0
25 70 42 87 0
-25 70 -42 87 0
25 -70 42 -87 0
-25 -70 -42 -87 0
25 70 40 85 0
-25 70 -40 85 0
25 -70 40 -85 0
-25 -70 -40 -85 0
25 70 42 87 0
-25 70 -42 87 0
25 -70 42 -87 0
-25 -70 -42 -87 0
26 71 30 75 0
-26 71 -30 75 0
26 -71 30 -75 0
-26 -71 -30 -75 0
26 71 36 81 0
-26 71 -36 81 0
26 -71 36 -81 0
-26 -71 -36 -81 0
26 71 36 81 0
-26 71 -36 81 0
26 -71 36 -81 0
-26 -71 -36 -81 0
26 71 36 81 0
-26 71 -36 81 0
26 -71 36 -81 0
-26 -71 -36 -81 0
27 72 42 87 0
-27 72 -42 87 0
27 -72 42 -87 0
-27 -72 -42 -87 0
27 72 29 74 0
-27 72 -29 74 0
27 -72 29 -74 0
-27 -72 -29 -74 0
27 72 41 86 0
-27 72 -41 86 0
27 -72 41 -86 0
-27 -72 -41 -86 0
27 72 38 83 0
-27 72 -38 83 0
27 -72 38 -83 0
-27 -72 -38 -83 0
28 73 41 86 0
-28 73 -41 86 0
28 -73 41 -86 0
-28 -73 -41 -86 0
28 73 32 77 0
-28 73 -32 77 0
28 -73 32 -77 0
-28 -73 -32 -77 0
29 74 43 88 0
-29 74 -43 88 0
29 -74 43 -88 0
-29 -74 -43 -88 0
29 74 42 87 0
-29 74 -42 87 0
29 -74 42 -87 0
-29 -74 -42 -87 0
29 74 43 88 0
-29 74 -43 88 0
29 -74 43 -88 0
-29 -74 -43 -88 0
30 75 37 82 0
-30 75 -37 82 0
30 -75 37 -82 0
-30 -75 -37 -82 0
30 75 35 80 0
-30 75 -35 80 0
30 -75 35 -80 0
-30 -75 -35 -80 0
31 76 41 86 0
-31 76 -41 86 0
31 -76 41 -86 0
-31 -76 -41 -86 0
31 76 45 90 0
-31 76 -45 90 0
31 -76 45 -90 0
-31 -76 -45 -90 0
31 76 45 90 0
-31 76 -45 90 0
31 -76 45 -90 0
-31 -76 -45 -90 0
31 76 35 80 0
-31 76 -35 80 0
31 -76 35 -80 0
-31 -76 -35 -80 0
32 77 44 89 0
-32 77 -44 89 0
32 -77 44 -89 0
-32 -77 -44 -89 0
33 78 37 82 0
-33 78 -37 82 0
33 -78 37 -82 0
-33 -78 -37 -82 0
34 79 45 90 0
-34 79 -45 90 0
34 -79 45 -90 0
-34 -79 -45 -90 0
34 79 45 90 0
-34 79 -45 90 0
34 -79 45 -90 0
-34 -79 -45 -90 0
36 81 38 83 0
-36 81 -38 83 0
36 -81 38 -83 0
-36 -81 -38 -83 0
36 81 37 82 0
-36 81 -37 82 0
36 -81 37 -82 0
-36 -81 -37 -82 0
38 83 42 87 0
-38 83 -42 87 0
38 -83 42 -87 0
-38 -83 -42 -87 0
38 83 44 89 0
-38 83 -44 89 0
38 -83 44 -89 0
-38 -83 -44 -89 0
39 84 40 85 0
-39 84 -40 85 0
39 -84 40 -85 0
-39 -84 -40 -85 0
40 85 42 87 0
-40 85 -42 87 0
40 -85 42 -87 0
-40 -85 -42 -87 0
41 86 43 88 0
-41 86 -43 88 0
41 -86 43 -88 0
-41 -86 -43 -88 0
43 88 45 90 0
-43 88 -45 90 0
43 -88 45 -90 0
-43 -88 -45 -90 0
